0000000000000000
0000000000000000
0001100000011110
0001100000011110
0011100000011100
0001110000111000
0001111001110000
0000011111100000
0000011111100000
0000011111110000
0000110000111000
0001100000011110
0111000000001110
0110000000001110
1100000000001110
0000000000000000